enter Problem

Minimize
obj:	 -10 xb6 -10 xb7 -10 xb8 + 10 xb9 + 10 xb10 + 10 xb16 + 10 xb17 + 10 xb18 -10 xb19 -10 xb20 -10 xb26 -10 xb27 -10 xb28 -10 xb29 -10 xb30 + 0.0001 xb77 + 0.0001 xb78 + 0.0001 xb79 + 0.0001 xb80 + 0.0001 xb81 + 0.0001 xb82 + 0.0001 xb83 + 0.0001 xb84 + 0.0001 xb85 + 0.0001 xb86
Subject To
c3:	xb79 - xb33 >= 0	 	
c4:	xb80 - xb34 >= 0	 	
c5:	xb81 - xb35 >= 0	 	
c6:	xb82 - xb36 >= 0	 	
c7:	xb83 - xb37 >= 0	 	
c8:	xb84 - xb38 >= 0	 	
c9:	xb85 - xb39 >= 0	 	
c10:	xb86 - xb40 >= 0	 	
c11:	xb77 - xb41 >= 0	 	
c12:	xb78 - xb42 >= 0	 	
c13:	xb79 - xb43 >= 0	 	
c14:	xb80 - xb44 >= 0	 	
c15:	xb81 - xb45 >= 0	 	
c16:	xb82 - xb46 >= 0	 	
c17:	xb83 - xb47 >= 0	 	
c18:	xb84 - xb48 >= 0	 	
c19:	xb85 - xb49 >= 0	 	
c20:	xb86 - xb50 >= 0	 	
c21:	xb77 - xb51 >= 0	 	
c22:	xb78 - xb52 >= 0	 	
c23:	xb79 - xb53 >= 0	 	
c24:	xb80 - xb54 >= 0	 	
c25:	xb81 - xb55 >= 0	 	
c26:	xb82 - xb56 >= 0	 	
c27:	xb83 - xb57 >= 0	 	
c28:	xb84 - xb58 >= 0	 	
c29:	xb85 - xb59 >= 0	 	
c30:	xb86 - xb60 >= 0	 	
c31:	xb1 + xb6 - 2xb31 >= 0	 	
c32:	xb11 + xb16 - 2xb41 >= 0	 	
c33:	xb21 + xb26 - 2xb51 >= 0	 	
c34:	xb2 + xb8 - 2xb32 >= 0	 	
c35:	xb12 + xb18 - 2xb42 >= 0	 	
c36:	xb22 + xb28 - 2xb52 >= 0	 	
c37:	xb2 + xb7 - 2xb33 >= 0	 	
c38:	xb12 + xb17 - 2xb43 >= 0	 	
c39:	xb22 + xb27 - 2xb53 >= 0	 	
c40:	xb3 + xb9 - 2xb34 >= 0	 	
c41:	xb13 + xb19 - 2xb44 >= 0	 	
c42:	xb23 + xb29 - 2xb54 >= 0	 	
c43:	xb4 + xb9 - 2xb35 >= 0	 	
c44:	xb14 + xb19 - 2xb45 >= 0	 	
c45:	xb24 + xb29 - 2xb55 >= 0	 	
c46:	xb4 + xb10 - 2xb36 >= 0	 	
c47:	xb14 + xb20 - 2xb46 >= 0	 	
c48:	xb24 + xb30 - 2xb56 >= 0	 	
c49:	xb2 + xb5 - 2xb37 >= 0	 	
c50:	xb12 + xb15 - 2xb47 >= 0	 	
c51:	xb22 + xb25 - 2xb57 >= 0	 	
c52:	xb6 + xb2 - 2xb38 >= 0	 	
c53:	xb16 + xb12 - 2xb48 >= 0	 	
c54:	xb26 + xb22 - 2xb58 >= 0	 	
c55:	xb7 + xb3 - 2xb39 >= 0	 	
c56:	xb17 + xb13 - 2xb49 >= 0	 	
c57:	xb27 + xb23 - 2xb59 >= 0	 	
c58:	xb5 + xb4 - 2xb40 >= 0	 	
c59:	xb15 + xb14 - 2xb50 >= 0	 	
c60:	xb25 + xb24 - 2xb60 >= 0	 	
c61:	xb31 >= 1	 	
c62:	xb1 = 1	 	
c63:	 +  >= 1	 	
c64:	 +  >= 1	 	
c65:	 = 1	 	
c66:	 = 1	 	
c67:	xb51 >= 1	 	
c68:	xb21 = 1	 	
c69:	xb32 + xb33 + xb37  -  xb2  >= 0	 	
c70:	xb34  -  xb3  >= 0	 	
c71:	xb35 + xb36  -  xb4  >= 0	 	
c72:	xb40  -  xb5  >= 0	 	
c73:	xb41  -  xb11  >= 0	 	
c74:	xb42 + xb43 + xb47  -  xb12  >= 0	 	
c75:	xb44  -  xb13  >= 0	 	
c76:	xb45 + xb46  -  xb14  >= 0	 	
c77:	xb50  -  xb15  >= 0	 	
c78:	xb52 + xb53 + xb57  -  xb22  >= 0	 	
c79:	xb54  -  xb23  >= 0	 	
c80:	xb55 + xb56  -  xb24  >= 0	 	
c81:	xb60  -  xb25  >= 0	 	
c82:	xb38  -  xb2  >= 0	 	
c83:	xb39  -  xb3  >= 0	 	
c84:	xb40  -  xb4  >= 0	 	
c85:	xb37  -  xb5  >= 0	 	
c86:	xb11 = 0	 	
c87:	xb48  -  xb12  >= 0	 	
c88:	xb49  -  xb13  >= 0	 	
c89:	xb50  -  xb14  >= 0	 	
c90:	xb47  -  xb15  >= 0	 	
c91:	xb58  -  xb22  >= 0	 	
c92:	xb59  -  xb23  >= 0	 	
c93:	xb60  -  xb24  >= 0	 	
c94:	xb57  -  xb25  >= 0	 	
c95:	xb31  -  xb6  >= 0	 	
c96:	xb33  -  xb7  >= 0	 	
c97:	xb32  -  xb8  >= 0	 	
c98:	xb34 + xb35  -  xb9  >= 0	 	
c99:	xb36  -  xb10  >= 0	 	
c100:	xb41  -  xb16  >= 0	 	
c101:	xb43  -  xb17  >= 0	 	
c102:	xb42  -  xb18  >= 0	 	
c103:	xb44 + xb45  -  xb19  >= 0	 	
c104:	xb46  -  xb20  >= 0	 	
c105:	xb51  -  xb26  >= 0	 	
c106:	xb53  -  xb27  >= 0	 	
c107:	xb52  -  xb28  >= 0	 	
c108:	xb54 + xb55  -  xb29  >= 0	 	
c109:	xb56  -  xb30  >= 0	 	
c110:	xb1 - dist{S}_1 <= 0	 	
c111:	xb2 - dist{M1}_1 <= 0	 	
c112:	xb3 - dist{M3}_1 <= 0	 	
c113:	xb4 - dist{I}_1 <= 0	 	
c114:	xb6 - dist{M1_S123}_1 <= 0	 	
c115:	xb7 - dist{M3_S123}_1 <= 0	 	
c116:	xb5 - dist{I_S123}_1 <= 0	 	
c117:	xb8 - dist{M2_S123}_1 <= 0	 	
c118:	xb9 - dist{M4_S123}_1 <= 0	 	
c119:	xb10 - dist{M5_S123}_1 <= 0	 	
c120:	xb11 - dist{S}_2 <= 0	 	
c121:	xb12 - dist{M1}_2 <= 0	 	
c122:	xb13 - dist{M3}_2 <= 0	 	
c123:	xb14 - dist{I}_2 <= 0	 	
c124:	xb16 - dist{M1_S123}_2 <= 0	 	
c125:	xb17 - dist{M3_S123}_2 <= 0	 	
c126:	xb15 - dist{I_S123}_2 <= 0	 	
c127:	xb18 - dist{M2_S123}_2 <= 0	 	
c128:	xb19 - dist{M4_S123}_2 <= 0	 	
c129:	xb20 - dist{M5_S123}_2 <= 0	 	
c130:	xb21 - dist{S}_3 <= 0	 	
c131:	xb22 - dist{M1}_3 <= 0	 	
c132:	xb23 - dist{M3}_3 <= 0	 	
c133:	xb24 - dist{I}_3 <= 0	 	
c134:	xb26 - dist{M1_S123}_3 <= 0	 	
c135:	xb27 - dist{M3_S123}_3 <= 0	 	
c136:	xb25 - dist{I_S123}_3 <= 0	 	
c137:	xb28 - dist{M2_S123}_3 <= 0	 	
c138:	xb29 - dist{M4_S123}_3 <= 0	 	
c139:	xb30 - dist{M5_S123}_3 <= 0	 	
c140:	dist{M1_S123}_1 - dist{S}_1 - 100 xb31 >= -99	 	
c141:	dist{M2_S123}_1 - dist{M1}_1 - 100 xb32 >= -99	 	
c142:	dist{M3_S123}_1 - dist{M1}_1 - 100 xb33 >= -99	 	
c143:	dist{M4_S123}_1 - dist{M3}_1 - 100 xb34 >= -99	 	
c144:	dist{M4_S123}_1 - dist{I}_1 - 100 xb35 >= -99	 	
c145:	dist{M5_S123}_1 - dist{I}_1 - 100 xb36 >= -99	 	
c146:	dist{I_S123}_1 - dist{M1}_1 - 100 xb37 >= -99	 	
c147:	dist{M1}_1 - dist{M1_S123}_1 - 100 xb38 >= -99	 	
c148:	dist{M3}_1 - dist{M3_S123}_1 - 100 xb39 >= -99	 	
c149:	dist{I}_1 - dist{I_S123}_1 - 100 xb40 >= -99	 	
c150:	dist{M1_S123}_2 - dist{S}_2 - 100 xb41 >= -99	 	
c151:	dist{M2_S123}_2 - dist{M1}_2 - 100 xb42 >= -99	 	
c152:	dist{M3_S123}_2 - dist{M1}_2 - 100 xb43 >= -99	 	
c153:	dist{M4_S123}_2 - dist{M3}_2 - 100 xb44 >= -99	 	
c154:	dist{M4_S123}_2 - dist{I}_2 - 100 xb45 >= -99	 	
c155:	dist{M5_S123}_2 - dist{I}_2 - 100 xb46 >= -99	 	
c156:	dist{I_S123}_2 - dist{M1}_2 - 100 xb47 >= -99	 	
c157:	dist{M1}_2 - dist{M1_S123}_2 - 100 xb48 >= -99	 	
c158:	dist{M3}_2 - dist{M3_S123}_2 - 100 xb49 >= -99	 	
c159:	dist{I}_2 - dist{I_S123}_2 - 100 xb50 >= -99	 	
c160:	dist{M1_S123}_3 - dist{S}_3 - 100 xb51 >= -99	 	
c161:	dist{M2_S123}_3 - dist{M1}_3 - 100 xb52 >= -99	 	
c162:	dist{M3_S123}_3 - dist{M1}_3 - 100 xb53 >= -99	 	
c163:	dist{M4_S123}_3 - dist{M3}_3 - 100 xb54 >= -99	 	
c164:	dist{M4_S123}_3 - dist{I}_3 - 100 xb55 >= -99	 	
c165:	dist{M5_S123}_3 - dist{I}_3 - 100 xb56 >= -99	 	
c166:	dist{I_S123}_3 - dist{M1}_3 - 100 xb57 >= -99	 	
c167:	dist{M1}_3 - dist{M1_S123}_3 - 100 xb58 >= -99	 	
c168:	dist{M3}_3 - dist{M3_S123}_3 - 100 xb59 >= -99	 	
c169:	dist{I}_3 - dist{I_S123}_3 - 100 xb60 >= -99	 	
c170:	dist{S}_1 <= 100	 	
c171:	dist{M1}_1 <= 100	 	
c172:	dist{M3}_1 <= 100	 	
c173:	dist{I}_1 <= 100	 	
c174:	dist{M1_S123}_1 <= 100	 	
c175:	dist{M3_S123}_1 <= 100	 	
c176:	dist{I_S123}_1 <= 100	 	
c177:	dist{M2_S123}_1 <= 100	 	
c178:	dist{M4_S123}_1 <= 100	 	
c179:	dist{M5_S123}_1 <= 100	 	
c180:	dist{S}_2 <= 100	 	
c181:	dist{M1}_2 <= 100	 	
c182:	dist{M3}_2 <= 100	 	
c183:	dist{I}_2 <= 100	 	
c184:	dist{M1_S123}_2 <= 100	 	
c185:	dist{M3_S123}_2 <= 100	 	
c186:	dist{I_S123}_2 <= 100	 	
c187:	dist{M2_S123}_2 <= 100	 	
c188:	dist{M4_S123}_2 <= 100	 	
c189:	dist{M5_S123}_2 <= 100	 	
c190:	dist{S}_3 <= 100	 	
c191:	dist{M1}_3 <= 100	 	
c192:	dist{M3}_3 <= 100	 	
c193:	dist{I}_3 <= 100	 	
c194:	dist{M1_S123}_3 <= 100	 	
c195:	dist{M3_S123}_3 <= 100	 	
c196:	dist{I_S123}_3 <= 100	 	
c197:	dist{M2_S123}_3 <= 100	 	
c198:	dist{M4_S123}_3 <= 100	 	
c199:	dist{M5_S123}_3 <= 100	 	
c200:	xb61 - xb69 = 0	 	
c201:	xb84 - xb61 >= 0	 	
c202:	xb78 + xb79 + xb83 - xb69 >= 0	 	
c203:	xb84 - xb61 <= 0	 	
c204:	xb78 - xb69 <= 0	 	
c205:	xb79 - xb69 <= 0	 	
c206:	xb83 - xb69 <= 0	 	
c207:	xb62 - xb70 = 0	 	
c208:	xb85 - xb62 >= 0	 	
c209:	xb80 - xb70 >= 0	 	
c210:	xb85 - xb62 <= 0	 	
c211:	xb80 - xb70 <= 0	 	
c212:	xb63 - xb71 = 0	 	
c213:	xb83 - xb63 >= 0	 	
c214:	xb86 - xb71 >= 0	 	
c215:	xb83 - xb63 <= 0	 	
c216:	xb86 - xb71 <= 0	 	
c217:	xb64 - xb72 = 0	 	
c218:	xb77 - xb64 >= 0	 	
c219:	xb84 - xb72 >= 0	 	
c220:	xb77 - xb64 <= 0	 	
c221:	xb84 - xb72 <= 0	 	
c222:	xb65 - xb73 = 0	 	
c223:	xb79 - xb65 >= 0	 	
c224:	xb85 - xb73 >= 0	 	
c225:	xb79 - xb65 <= 0	 	
c226:	xb85 - xb73 <= 0	 	
c227:	xb45 = 0	 	
c228:	xb46 = 0	 	
c229:	xb55 = 0	 	
c230:	xb56 = 0	 	
Bounds
	xb1 >= 0	 	
	xb1 <= 1	 	
	xb2 >= 0	 	
	xb2 <= 1	 	
	xb3 >= 0	 	
	xb3 <= 1	 	
	xb4 >= 0	 	
	xb4 <= 1	 	
	xb5 >= 0	 	
	xb5 <= 1	 	
	xb6 >= 0	 	
	xb6 <= 1	 	
	xb7 >= 0	 	
	xb7 <= 1	 	
	xb8 >= 0	 	
	xb8 <= 1	 	
	xb9 >= 0	 	
	xb9 <= 1	 	
	xb10 >= 0	 	
	xb10 <= 1	 	
	xb11 >= 0	 	
	xb11 <= 1	 	
	xb12 >= 0	 	
	xb12 <= 1	 	
	xb13 >= 0	 	
	xb13 <= 1	 	
	xb14 >= 0	 	
	xb14 <= 1	 	
	xb15 >= 0	 	
	xb15 <= 1	 	
	xb16 >= 0	 	
	xb16 <= 1	 	
	xb17 >= 0	 	
	xb17 <= 1	 	
	xb18 >= 0	 	
	xb18 <= 1	 	
	xb19 >= 0	 	
	xb19 <= 1	 	
	xb20 >= 0	 	
	xb20 <= 1	 	
	xb21 >= 0	 	
	xb21 <= 1	 	
	xb22 >= 0	 	
	xb22 <= 1	 	
	xb23 >= 0	 	
	xb23 <= 1	 	
	xb24 >= 0	 	
	xb24 <= 1	 	
	xb25 >= 0	 	
	xb25 <= 1	 	
	xb26 >= 0	 	
	xb26 <= 1	 	
	xb27 >= 0	 	
	xb27 <= 1	 	
	xb28 >= 0	 	
	xb28 <= 1	 	
	xb29 >= 0	 	
	xb29 <= 1	 	
	xb30 >= 0	 	
	xb30 <= 1	 	
	xb31 >= 0	 	
	xb31 <= 1	 	
	xb32 >= 0	 	
	xb32 <= 1	 	
	xb33 >= 0	 	
	xb33 <= 1	 	
	xb34 >= 0	 	
	xb34 <= 1	 	
	xb35 >= 0	 	
	xb35 <= 1	 	
	xb36 >= 0	 	
	xb36 <= 1	 	
	xb37 >= 0	 	
	xb37 <= 1	 	
	xb38 >= 0	 	
	xb38 <= 1	 	
	xb39 >= 0	 	
	xb39 <= 1	 	
	xb40 >= 0	 	
	xb40 <= 1	 	
	xb41 >= 0	 	
	xb41 <= 1	 	
	xb42 >= 0	 	
	xb42 <= 1	 	
	xb43 >= 0	 	
	xb43 <= 1	 	
	xb44 >= 0	 	
	xb44 <= 1	 	
	xb45 >= 0	 	
	xb45 <= 1	 	
	xb46 >= 0	 	
	xb46 <= 1	 	
	xb47 >= 0	 	
	xb47 <= 1	 	
	xb48 >= 0	 	
	xb48 <= 1	 	
	xb49 >= 0	 	
	xb49 <= 1	 	
	xb50 >= 0	 	
	xb50 <= 1	 	
	xb51 >= 0	 	
	xb51 <= 1	 	
	xb52 >= 0	 	
	xb52 <= 1	 	
	xb53 >= 0	 	
	xb53 <= 1	 	
	xb54 >= 0	 	
	xb54 <= 1	 	
	xb55 >= 0	 	
	xb55 <= 1	 	
	xb56 >= 0	 	
	xb56 <= 1	 	
	xb57 >= 0	 	
	xb57 <= 1	 	
	xb58 >= 0	 	
	xb58 <= 1	 	
	xb59 >= 0	 	
	xb59 <= 1	 	
	xb60 >= 0	 	
	xb60 <= 1	 	
	xb61 >= 0	 	
	xb61 <= 1	 	
	xb62 >= 0	 	
	xb62 <= 1	 	
	xb63 >= 0	 	
	xb63 <= 1	 	
	xb64 >= 0	 	
	xb64 <= 1	 	
	xb65 >= 0	 	
	xb65 <= 1	 	
	xb66 >= 0	 	
	xb66 <= 1	 	
	xb67 >= 0	 	
	xb67 <= 1	 	
	xb68 >= 0	 	
	xb68 <= 1	 	
	xb69 >= 0	 	
	xb69 <= 1	 	
	xb70 >= 0	 	
	xb70 <= 1	 	
	xb71 >= 0	 	
	xb71 <= 1	 	
	xb72 >= 0	 	
	xb72 <= 1	 	
	xb73 >= 0	 	
	xb73 <= 1	 	
	xb74 >= 0	 	
	xb74 <= 1	 	
	xb75 >= 0	 	
	xb75 <= 1	 	
	xb76 >= 0	 	
	xb76 <= 1	 	
	xb77 >= 0	 	
	xb77 <= 1	 	
	xb78 >= 0	 	
	xb78 <= 1	 	
	xb79 >= 0	 	
	xb79 <= 1	 	
	xb80 >= 0	 	
	xb80 <= 1	 	
	xb81 >= 0	 	
	xb81 <= 1	 	
	xb82 >= 0	 	
	xb82 <= 1	 	
	xb83 >= 0	 	
	xb83 <= 1	 	
	xb84 >= 0	 	
	xb84 <= 1	 	
	xb85 >= 0	 	
	xb85 <= 1	 	
	xb86 >= 0	 	
	xb86 <= 1	 	
	0 <= dist{S}_1 <= 100
	0 <= dist{M1}_1 <= 100
	0 <= dist{M3}_1 <= 100
	0 <= dist{I}_1 <= 100
	0 <= dist{M1_S123}_1 <= 100
	0 <= dist{M3_S123}_1 <= 100
	0 <= dist{I_S123}_1 <= 100
	0 <= dist{M2_S123}_1 <= 100
	0 <= dist{M4_S123}_1 <= 100
	0 <= dist{M5_S123}_1 <= 100
	0 <= dist{S}_2 <= 100
	0 <= dist{M1}_2 <= 100
	0 <= dist{M3}_2 <= 100
	0 <= dist{I}_2 <= 100
	0 <= dist{M1_S123}_2 <= 100
	0 <= dist{M3_S123}_2 <= 100
	0 <= dist{I_S123}_2 <= 100
	0 <= dist{M2_S123}_2 <= 100
	0 <= dist{M4_S123}_2 <= 100
	0 <= dist{M5_S123}_2 <= 100
	0 <= dist{S}_3 <= 100
	0 <= dist{M1}_3 <= 100
	0 <= dist{M3}_3 <= 100
	0 <= dist{I}_3 <= 100
	0 <= dist{M1_S123}_3 <= 100
	0 <= dist{M3_S123}_3 <= 100
	0 <= dist{I_S123}_3 <= 100
	0 <= dist{M2_S123}_3 <= 100
	0 <= dist{M4_S123}_3 <= 100
	0 <= dist{M5_S123}_3 <= 100
Binaries
xb1
xb2
xb3
xb4
xb5
xb6
xb7
xb8
xb9
xb10
xb11
xb12
xb13
xb14
xb15
xb16
xb17
xb18
xb19
xb20
xb21
xb22
xb23
xb24
xb25
xb26
xb27
xb28
xb29
xb30
xb31
xb32
xb33
xb34
xb35
xb36
xb37
xb38
xb39
xb40
xb41
xb42
xb43
xb44
xb45
xb46
xb47
xb48
xb49
xb50
xb51
xb52
xb53
xb54
xb55
xb56
xb57
xb58
xb59
xb60
xb61
xb62
xb63
xb64
xb65
xb66
xb67
xb68
xb69
xb70
xb71
xb72
xb73
xb74
xb75
xb76
xb77
xb78
xb79
xb80
xb81
xb82
xb83
xb84
xb85
xb86
End
